c This is a CNF SAT formula in the DIMACS CNF format,
c produced with the bc2cnf translator by Tommi Junttila;
c see http://users.ics.aalto.fi/tjunttil/circuits/index.html
c output <-> 1
c ra_s7a <-> 2
c ra_s6a <-> 3
c ra_s5a <-> 4
c ra_s4a <-> 5
c ra_s3a <-> 6
c ra_s2a <-> 7
c ra_s1a <-> 8
c s0a <-> 9
c ra_s0a <-> 9
c ra_c7 <-> 10
c ra_c6 <-> 14
c ra_c5 <-> 18
c ra_c4 <-> 22
c ra_c3 <-> 26
c ra_c2 <-> 30
c ra_c1 <-> 34
c ra_c0 <-> 38
c s7a <-> 42
c p7 <-> 43
c s6a <-> 44
c s5a <-> 45
c s4a <-> 46
c s3a <-> 47
c s2a <-> 48
c s1a <-> 49
c c6 <-> 50
c c5 <-> 52
c c4 <-> 54
c c3 <-> 56
c c2 <-> 58
c c1 <-> 60
c c0 <-> 62
c cminus1 <-> 64
c p70 <-> 65
c g70 <-> 66
c p30 <-> 68
c g30 <-> 69
c p74 <-> 71
c g74 <-> 72
c p76 <-> 74
c g76 <-> 75
c p54 <-> 77
c g54 <-> 78
c p32 <-> 80
c g32 <-> 81
c p10 <-> 83
c g10 <-> 84
c p0 <-> 86
c g0 <-> 87
c b0 <-> 88
c a0 <-> 89
c p1 <-> 90
c g1 <-> 91
c b1 <-> 92
c a1 <-> 93
c p2 <-> 94
c g2 <-> 95
c b2 <-> 96
c a2 <-> 97
c p3 <-> 98
c g3 <-> 99
c b3 <-> 100
c a3 <-> 101
c p4 <-> 102
c g4 <-> 103
c b4 <-> 104
c a4 <-> 105
c p5 <-> 106
c g5 <-> 107
c b5 <-> 108
c a5 <-> 109
c p6 <-> 110
c g6 <-> 111
c b6 <-> 112
c a6 <-> 113
c g7 <-> 114
c b7 <-> 115
c a7 <-> 116
p cnf 116 322
1 42 -2 0
1 -42 2 0
-1 42 2 0
-1 -42 -2 0
1 0
2 43 -14 0
2 -43 14 0
-2 43 14 0
-2 -43 -14 0
3 110 -18 0
3 -110 18 0
-3 110 18 0
-3 -110 -18 0
4 106 -22 0
4 -106 22 0
-4 106 22 0
-4 -106 -22 0
5 102 -26 0
5 -102 26 0
-5 102 26 0
-5 -102 -26 0
6 98 -30 0
6 -98 30 0
-6 98 30 0
-6 -98 -30 0
7 94 -34 0
7 -94 34 0
-7 94 34 0
-7 -94 -34 0
8 90 -38 0
8 -90 38 0
-8 90 38 0
-8 -90 -38 0
9 86 -64 0
9 -86 64 0
-9 86 64 0
-9 -86 -64 0
10 -11 0
10 -12 0
-10 12 11 0
-11 14 0
-11 116 0
11 -116 -14 0
12 -13 0
12 -114 0
-12 114 13 0
-13 14 0
-13 115 0
13 -115 -14 0
14 -15 0
14 -16 0
-14 16 15 0
-15 18 0
-15 113 0
15 -113 -18 0
16 -17 0
16 -111 0
-16 111 17 0
-17 18 0
-17 112 0
17 -112 -18 0
18 -19 0
18 -20 0
-18 20 19 0
-19 22 0
-19 109 0
19 -109 -22 0
20 -21 0
20 -107 0
-20 107 21 0
-21 22 0
-21 108 0
21 -108 -22 0
22 -23 0
22 -24 0
-22 24 23 0
-23 26 0
-23 105 0
23 -105 -26 0
24 -25 0
24 -103 0
-24 103 25 0
-25 26 0
-25 104 0
25 -104 -26 0
26 -27 0
26 -28 0
-26 28 27 0
-27 30 0
-27 101 0
27 -101 -30 0
28 -29 0
28 -99 0
-28 99 29 0
-29 30 0
-29 100 0
29 -100 -30 0
30 -31 0
30 -32 0
-30 32 31 0
-31 34 0
-31 97 0
31 -97 -34 0
32 -33 0
32 -95 0
-32 95 33 0
-33 34 0
-33 96 0
33 -96 -34 0
34 -35 0
34 -36 0
-34 36 35 0
-35 38 0
-35 93 0
35 -93 -38 0
36 -37 0
36 -91 0
-36 91 37 0
-37 38 0
-37 92 0
37 -92 -38 0
38 -39 0
38 -40 0
-38 40 39 0
-39 64 0
-39 89 0
39 -89 -64 0
40 -41 0
40 -87 0
-40 87 41 0
-41 64 0
-41 88 0
41 -88 -64 0
42 50 -43 0
42 -50 43 0
-42 50 43 0
-42 -50 -43 0
43 116 -115 0
43 -116 115 0
-43 116 115 0
-43 -116 -115 0
44 110 -52 0
44 -110 52 0
-44 110 52 0
-44 -110 -52 0
45 106 -54 0
45 -106 54 0
-45 106 54 0
-45 -106 -54 0
46 102 -56 0
46 -102 56 0
-46 102 56 0
-46 -102 -56 0
47 98 -58 0
47 -98 58 0
-47 98 58 0
-47 -98 -58 0
48 94 -60 0
48 -94 60 0
-48 94 60 0
-48 -94 -60 0
49 90 -62 0
49 -90 62 0
-49 90 62 0
-49 -90 -62 0
50 -51 0
50 -75 0
-50 75 51 0
-51 56 0
-51 74 0
51 -74 -56 0
52 -53 0
52 -72 0
-52 72 53 0
-53 56 0
-53 71 0
53 -71 -56 0
54 -55 0
54 -78 0
-54 78 55 0
-55 56 0
-55 77 0
55 -77 -56 0
56 -57 0
56 -66 0
-56 66 57 0
-57 64 0
-57 65 0
57 -65 -64 0
58 -59 0
58 -81 0
-58 81 59 0
-59 60 0
-59 80 0
59 -80 -60 0
60 -61 0
60 -69 0
-60 69 61 0
-61 64 0
-61 68 0
61 -68 -64 0
62 -63 0
62 -84 0
-62 84 63 0
-63 64 0
-63 84 0
63 -84 -64 0
-65 68 0
-65 71 0
65 -71 -68 0
66 -67 0
66 -72 0
-66 72 67 0
-67 69 0
-67 71 0
67 -71 -69 0
-68 80 0
-68 83 0
68 -83 -80 0
69 -70 0
69 -81 0
-69 81 70 0
-70 80 0
-70 84 0
70 -84 -80 0
-71 74 0
-71 77 0
71 -77 -74 0
72 -73 0
72 -75 0
-72 75 73 0
-73 74 0
-73 78 0
73 -78 -74 0
-74 43 0
-74 110 0
74 -110 -43 0
75 -76 0
75 -114 0
-75 114 76 0
-76 43 0
-76 111 0
76 -111 -43 0
-77 102 0
-77 106 0
77 -106 -102 0
78 -79 0
78 -107 0
-78 107 79 0
-79 103 0
-79 106 0
79 -106 -103 0
-80 94 0
-80 98 0
80 -98 -94 0
81 -82 0
81 -99 0
-81 99 82 0
-82 95 0
-82 98 0
82 -98 -95 0
-83 86 0
-83 90 0
83 -90 -86 0
84 -85 0
84 -91 0
-84 91 85 0
-85 87 0
-85 90 0
85 -90 -87 0
86 89 -88 0
86 -89 88 0
-86 89 88 0
-86 -89 -88 0
-87 88 0
-87 89 0
87 -89 -88 0
90 93 -92 0
90 -93 92 0
-90 93 92 0
-90 -93 -92 0
-91 92 0
-91 93 0
91 -93 -92 0
94 97 -96 0
94 -97 96 0
-94 97 96 0
-94 -97 -96 0
-95 96 0
-95 97 0
95 -97 -96 0
98 101 -100 0
98 -101 100 0
-98 101 100 0
-98 -101 -100 0
-99 100 0
-99 101 0
99 -101 -100 0
102 105 -104 0
102 -105 104 0
-102 105 104 0
-102 -105 -104 0
-103 104 0
-103 105 0
103 -105 -104 0
106 109 -108 0
106 -109 108 0
-106 109 108 0
-106 -109 -108 0
-107 108 0
-107 109 0
107 -109 -108 0
110 113 -112 0
110 -113 112 0
-110 113 112 0
-110 -113 -112 0
-111 112 0
-111 113 0
111 -113 -112 0
-114 115 0
-114 116 0
114 -116 -115 0